c 
c G(n,p) graph
c graph gen seed     : 6292
c number of vertices : 50
c max number of edges: 1225
c edge probability   : 0.200000
c data structure     : sparse
c
c           Graph Stats
c number of vertices  : 50
c nonisolated vertices: 50
c number of edges     : 264
c edge density        : 0.215510
c max degree          : 20
c avg degree          : 10.56
c min degree          : 6
p col 50 264
e 1 46
e 1 40
e 1 33
e 1 24
e 1 19
e 1 16
e 1 14
e 1 13
e 1 9
e 1 8
e 1 7
e 2 49
e 2 46
e 2 40
e 2 32
e 2 31
e 2 28
e 2 27
e 2 26
e 2 24
e 2 21
e 2 20
e 2 6
e 2 5
e 2 4
e 3 50
e 3 41
e 3 38
e 3 36
e 3 35
e 3 33
e 3 31
e 3 28
e 3 22
e 3 20
e 3 16
e 3 13
e 3 12
e 3 11
e 3 9
e 3 8
e 3 7
e 3 5
e 4 49
e 4 45
e 4 35
e 4 32
e 4 17
e 4 16
e 4 12
e 5 50
e 5 49
e 5 48
e 5 47
e 5 32
e 5 30
e 5 28
e 5 25
e 5 20
e 6 49
e 6 45
e 6 41
e 6 40
e 6 37
e 6 32
e 6 30
e 6 28
e 6 23
e 6 20
e 6 16
e 6 13
e 7 49
e 7 44
e 7 43
e 7 41
e 7 33
e 7 27
e 7 26
e 7 14
e 7 10
e 7 9
e 7 8
e 8 45
e 8 33
e 8 22
e 8 21
e 8 19
e 8 16
e 8 14
e 8 12
e 8 11
e 8 10
e 9 49
e 9 41
e 9 39
e 9 36
e 9 30
e 9 29
e 9 24
e 10 49
e 10 48
e 10 42
e 10 31
e 10 29
e 10 28
e 10 27
e 10 24
e 10 23
e 10 20
e 10 17
e 10 15
e 10 11
e 11 41
e 11 34
e 11 23
e 11 18
e 12 48
e 12 37
e 12 32
e 12 30
e 12 28
e 12 23
e 12 22
e 12 19
e 13 50
e 13 48
e 13 46
e 13 45
e 13 41
e 13 39
e 13 38
e 13 35
e 13 29
e 13 27
e 14 47
e 14 41
e 14 38
e 14 28
e 14 21
e 14 15
e 15 49
e 15 43
e 15 38
e 15 37
e 15 24
e 16 49
e 16 45
e 16 44
e 16 38
e 16 37
e 16 30
e 16 29
e 16 27
e 16 25
e 16 22
e 16 19
e 17 35
e 17 33
e 17 31
e 17 25
e 18 46
e 18 45
e 18 39
e 18 37
e 18 35
e 18 30
e 18 23
e 18 20
e 19 50
e 19 37
e 19 33
e 19 30
e 19 29
e 19 20
e 20 50
e 20 49
e 20 35
e 20 22
e 21 49
e 21 46
e 21 45
e 21 22
e 22 50
e 22 49
e 22 36
e 22 33
e 22 27
e 22 26
e 23 50
e 23 49
e 23 42
e 23 33
e 23 30
e 24 42
e 24 37
e 24 33
e 24 26
e 25 43
e 25 42
e 25 38
e 26 47
e 26 46
e 26 34
e 26 28
e 27 44
e 27 42
e 27 39
e 27 38
e 27 37
e 27 36
e 27 35
e 27 29
e 28 50
e 28 47
e 28 45
e 28 40
e 28 31
e 28 29
e 29 39
e 29 38
e 29 30
e 30 47
e 30 35
e 31 48
e 31 43
e 31 38
e 31 37
e 32 43
e 33 50
e 33 39
e 34 47
e 34 46
e 34 42
e 34 35
e 35 49
e 35 46
e 35 45
e 35 39
e 35 37
e 36 47
e 36 45
e 36 42
e 36 41
e 37 49
e 37 42
e 37 39
e 38 50
e 38 40
e 38 39
e 39 46
e 39 41
e 39 40
e 41 50
e 41 43
e 42 49
e 43 48
e 43 45
e 44 47
e 44 46
e 44 45
e 45 49
e 46 49
e 47 49
e 48 49
